DIMACS_lns/graph-1000-3.col
p edge 1000 1844
e 1 143
e 1 495
e 1 183
e 1 755
e 1 857
e 1 381
e 2 656
e 2 520
e 2 588
e 3 247
e 3 210
e 3 328
e 3 652
e 6 820
e 6 718
e 6 800
e 6 957
e 7 508
e 7 647
e 7 191
e 7 689
e 8 392
e 8 616
e 8 85
e 8 517
e 8 916
e 8 25
e 8 806
e 8 743
e 8 807
e 9 472
e 9 185
e 9 49
e 11 736
e 11 386
e 11 780
e 11 310
e 11 729
e 11 819
e 11 893
e 12 434
e 12 398
e 12 24
e 12 957
e 12 64
e 12 169
e 12 459
e 14 928
e 14 622
e 14 264
e 14 57
e 15 162
e 15 978
e 15 158
e 16 626
e 16 654
e 16 215
e 19 593
e 19 564
e 19 227
e 19 615
e 19 269
e 20 969
e 20 310
e 20 254
e 20 874
e 21 425
e 21 951
e 21 151
e 22 485
e 22 964
e 22 306
e 22 483
e 22 927
e 22 776
e 22 777
e 22 792
e 24 467
e 24 778
e 24 970
e 24 183
e 24 301
e 24 437
e 25 358
e 25 581
e 25 438
e 25 533
e 26 126
e 26 318
e 26 844
e 26 47
e 26 75
e 26 348
e 27 218
e 27 240
e 27 933
e 27 964
e 27 143
e 28 925
e 28 617
e 28 123
e 28 449
e 28 98
e 29 442
e 29 305
e 29 379
e 30 331
e 30 261
e 30 766
e 30 849
e 31 202
e 31 485
e 31 591
e 31 855
e 31 454
e 33 48
e 33 978
e 33 368
e 33 550
e 33 857
e 33 989
e 34 345
e 34 399
e 34 244
e 37 567
e 37 70
e 37 421
e 39 773
e 39 486
e 39 828
e 39 545
e 39 374
e 41 839
e 41 205
e 41 867
e 41 994
e 43 597
e 43 509
e 43 548
e 44 170
e 44 445
e 44 741
e 44 708
e 44 924
e 44 248
e 44 908
e 45 644
e 45 117
e 45 319
e 46 105
e 46 614
e 46 489
e 47 498
e 47 838
e 47 866
e 48 91
e 48 424
e 48 821
e 48 113
e 49 117
e 49 317
e 49 738
e 49 193
e 49 219
e 51 418
e 51 665
e 51 360
e 51 807
e 52 394
e 52 341
e 52 89
e 52 726
e 54 91
e 54 857
e 54 563
e 54 311
e 57 562
e 57 622
e 57 666
e 57 613
e 57 790
e 57 633
e 57 469
e 60 680
e 60 415
e 60 811
e 61 243
e 61 572
e 61 559
e 61 618
e 61 542
e 63 906
e 63 854
e 63 884
e 63 848
e 64 587
e 64 350
e 64 739
e 64 197
e 65 382
e 65 200
e 65 529
e 66 630
e 66 453
e 66 207
e 66 358
e 66 821
e 67 365
e 67 958
e 67 146
e 67 376
e 68 492
e 68 197
e 68 877
e 68 484
e 69 795
e 69 263
e 69 891
e 69 775
e 70 512
e 70 371
e 70 417
e 70 721
e 70 758
e 70 76
e 73 600
e 73 699
e 73 622
e 74 651
e 74 365
e 74 692
e 74 181
e 74 844
e 75 126
e 75 833
e 75 452
e 76 484
e 76 382
e 76 550
e 76 919
e 76 887
e 76 857
e 76 853
e 77 376
e 77 349
e 77 427
e 77 266
e 77 411
e 77 319
e 77 699
e 77 989
e 78 996
e 78 243
e 78 495
e 78 387
e 79 951
e 79 853
e 79 386
e 79 863
e 79 890
e 80 240
e 80 866
e 80 476
e 80 464
e 80 561
e 81 322
e 81 729
e 81 758
e 81 177
e 81 571
e 81 520
e 81 745
e 82 906
e 82 109
e 82 347
e 82 265
e 85 715
e 85 263
e 85 180
e 85 682
e 85 436
e 86 899
e 86 231
e 86 288
e 86 492
e 86 234
e 86 517
e 86 687
e 88 207
e 88 607
e 88 783
e 88 762
e 89 640
e 89 173
e 90 306
e 90 706
e 90 185
e 90 321
e 91 110
e 91 169
e 91 437
e 91 943
e 91 488
e 92 449
e 92 462
e 92 673
e 92 747
e 92 902
e 92 791
e 94 682
e 94 429
e 94 367
e 95 282
e 95 342
e 95 212
e 95 485
e 95 339
e 95 236
e 97 916
e 97 175
e 97 574
e 97 466
e 97 432
e 97 291
e 97 918
e 98 818
e 98 513
e 98 300
e 98 173
e 98 927
e 100 367
e 100 837
e 100 910
e 100 976
e 100 450
e 100 554
e 102 880
e 102 515
e 102 133
e 103 825
e 103 677
e 103 552
e 103 805
e 105 398
e 105 647
e 107 721
e 107 125
e 107 841
e 107 907
e 109 206
e 109 831
e 109 702
e 109 194
e 109 832
e 110 742
e 110 170
e 110 899
e 110 810
e 112 228
e 112 961
e 112 423
e 113 332
e 113 971
e 113 538
e 113 472
e 114 526
e 114 180
e 114 641
e 114 321
e 114 577
e 115 488
e 115 840
e 115 117
e 117 874
e 118 588
e 118 735
e 118 559
e 118 545
e 118 272
e 118 920
e 119 921
e 119 888
e 119 981
e 119 734
e 119 650
e 120 558
e 120 801
e 120 524
e 120 973
e 120 370
e 120 330
e 121 442
e 121 844
e 121 551
e 121 217
e 121 208
e 122 297
e 122 764
e 122 680
e 122 228
e 122 507
e 123 172
e 123 783
e 123 317
e 123 518
e 123 358
e 124 599
e 124 802
e 124 416
e 124 932
e 124 320
e 124 422
e 125 289
e 125 551
e 125 392
e 125 971
e 125 472
e 125 583
e 126 891
e 126 281
e 126 756
e 127 374
e 127 713
e 127 595
e 127 178
e 128 586
e 128 545
e 128 177
e 132 876
e 132 446
e 132 694
e 132 305
e 132 379
e 132 919
e 133 217
e 133 435
e 133 876
e 133 689
e 133 209
e 133 522
e 136 317
e 136 539
e 136 782
e 136 625
e 137 382
e 137 983
e 137 807
e 139 769
e 139 231
e 139 828
e 139 558
e 139 325
e 141 584
e 141 607
e 141 265
e 143 521
e 143 706
e 143 854
e 146 327
e 146 158
e 146 228
e 146 652
e 149 446
e 149 971
e 149 230
e 149 314
e 149 921
e 151 872
e 151 246
e 152 445
e 152 639
e 152 201
e 152 406
e 153 548
e 153 680
e 153 323
e 153 905
e 153 864
e 153 222
e 154 463
e 154 182
e 154 910
e 156 884
e 156 593
e 156 324
e 158 398
e 158 543
e 158 666
e 158 868
e 159 298
e 159 899
e 159 877
e 159 500
e 160 399
e 160 202
e 160 523
e 161 498
e 161 927
e 161 812
e 162 335
e 162 327
e 162 773
e 163 234
e 163 222
e 163 507
e 167 889
e 167 615
e 167 178
e 169 646
e 169 777
e 169 729
e 170 207
e 170 770
e 170 491
e 172 983
e 172 982
e 172 642
e 172 929
e 172 338
e 172 971
e 172 230
e 172 312
e 173 252
e 173 787
e 173 981
e 174 616
e 174 364
e 174 493
e 175 442
e 175 379
e 175 617
e 176 304
e 176 914
e 176 178
e 176 937
e 177 555
e 177 519
e 178 614
e 178 579
e 178 893
e 178 180
e 178 877
e 178 410
e 180 243
e 180 466
e 180 351
e 180 580
e 181 270
e 181 858
e 181 185
e 181 873
e 182 229
e 182 251
e 182 743
e 183 894
e 183 670
e 183 641
e 183 583
e 184 777
e 184 266
e 184 454
e 184 267
e 184 705
e 184 289
e 184 707
e 185 886
e 188 202
e 188 600
e 188 215
e 188 281
e 189 485
e 189 843
e 189 951
e 189 440
e 189 411
e 189 839
e 191 323
e 191 272
e 191 385
e 191 933
e 191 457
e 191 328
e 193 911
e 193 904
e 193 244
e 194 715
e 194 919
e 194 206
e 196 751
e 196 874
e 196 819
e 197 244
e 197 881
e 197 760
e 197 833
e 197 618
e 197 246
e 197 327
e 199 645
e 199 745
e 199 840
e 199 422
e 200 996
e 200 227
e 200 735
e 200 981
e 200 835
e 201 930
e 201 574
e 202 229
e 202 901
e 202 578
e 203 529
e 203 729
e 203 385
e 203 767
e 203 296
e 203 793
e 203 305
e 205 683
e 205 628
e 205 960
e 205 771
e 205 347
e 206 394
e 206 539
e 206 777
e 206 389
e 207 560
e 207 376
e 208 861
e 208 650
e 208 738
e 208 875
e 208 776
e 208 517
e 208 516
e 209 399
e 209 539
e 209 353
e 209 319
e 209 571
e 210 666
e 210 318
e 210 740
e 211 263
e 211 710
e 211 983
e 211 309
e 212 910
e 212 821
e 212 415
e 212 800
e 213 226
e 213 977
e 213 574
e 213 392
e 213 927
e 215 329
e 215 817
e 215 219
e 217 810
e 217 822
e 217 508
e 217 546
e 217 734
e 217 547
e 218 863
e 218 345
e 218 685
e 218 379
e 218 370
e 219 452
e 219 840
e 219 502
e 219 849
e 219 845
e 220 527
e 220 609
e 220 1000
e 220 335
e 220 820
e 220 968
e 222 875
e 222 793
e 222 927
e 222 841
e 222 536
e 222 529
e 222 721
e 222 597
e 224 331
e 224 541
e 224 872
e 225 539
e 225 433
e 225 230
e 225 691
e 225 699
e 226 332
e 226 771
e 226 666
e 226 642
e 226 637
e 227 750
e 227 651
e 227 363
e 227 833
e 228 507
e 228 832
e 228 292
e 229 253
e 230 452
e 230 963
e 231 487
e 231 243
e 231 333
e 231 626
e 231 957
e 232 376
e 232 678
e 232 970
e 232 360
e 232 581
e 234 415
e 234 809
e 234 353
e 234 487
e 234 347
e 234 288
e 234 636
e 234 733
e 235 751
e 235 955
e 235 899
e 236 322
e 236 404
e 236 309
e 237 890
e 237 465
e 237 442
e 237 929
e 238 841
e 238 617
e 238 432
e 238 531
e 239 767
e 239 383
e 239 740
e 239 972
e 239 559
e 240 713
e 240 256
e 240 366
e 241 880
e 241 853
e 241 312
e 241 601
e 243 411
e 243 464
e 243 802
e 243 472
e 243 298
e 243 692
e 244 257
e 244 466
e 244 374
e 245 488
e 245 762
e 245 636
e 245 541
e 246 599
e 246 957
e 246 404
e 246 485
e 246 488
e 246 667
e 246 675
e 246 646
e 247 352
e 247 280
e 247 559
e 247 890
e 248 533
e 248 991
e 248 308
e 250 297
e 250 399
e 250 720
e 250 835
e 251 665
e 251 955
e 251 342
e 252 812
e 252 685
e 252 285
e 253 394
e 253 665
e 253 699
e 253 582
e 254 846
e 254 880
e 254 517
e 254 975
e 256 574
e 256 704
e 256 508
e 256 847
e 256 663
e 257 292
e 257 811
e 257 798
e 261 563
e 261 513
e 261 629
e 261 514
e 262 464
e 262 854
e 262 583
e 262 975
e 262 568
e 262 992
e 262 932
e 263 766
e 264 303
e 264 382
e 264 935
e 264 502
e 264 832
e 264 904
e 264 629
e 265 810
e 265 806
e 265 360
e 265 976
e 266 311
e 266 880
e 266 466
e 266 669
e 266 828
e 267 986
e 267 433
e 267 593
e 267 623
e 269 379
e 269 591
e 269 419
e 269 320
e 269 319
e 270 354
e 270 751
e 270 466
e 272 405
e 272 971
e 272 987
e 272 450
e 272 590
e 279 831
e 279 613
e 279 960
e 280 401
e 280 644
e 280 482
e 281 407
e 281 626
e 281 569
e 281 487
e 282 750
e 282 594
e 283 701
e 283 360
e 283 385
e 285 491
e 285 817
e 285 415
e 285 625
e 285 338
e 285 550
e 285 362
e 288 656
e 288 517
e 289 699
e 289 645
e 289 436
e 291 990
e 291 579
e 292 445
e 292 548
e 294 1000
e 294 447
e 294 926
e 294 618
e 294 559
e 295 630
e 295 869
e 295 583
e 296 555
e 296 599
e 296 728
e 296 712
e 296 527
e 297 309
e 298 931
e 298 515
e 298 750
e 298 695
e 298 890
e 299 797
e 299 345
e 299 950
e 300 471
e 300 366
e 300 583
e 300 496
e 300 337
e 301 563
e 301 459
e 301 773
e 301 351
e 301 339
e 303 539
e 303 497
e 304 692
e 304 385
e 304 750
e 304 728
e 305 674
e 305 683
e 305 856
e 306 676
e 306 587
e 306 490
e 306 660
e 306 710
e 306 516
e 308 987
e 308 798
e 308 800
e 308 736
e 309 691
e 309 501
e 309 834
e 309 418
e 309 433
e 310 375
e 310 506
e 310 602
e 311 608
e 311 609
e 311 690
e 311 983
e 311 345
e 311 465
e 311 636
e 311 790
e 312 453
e 312 500
e 312 907
e 312 866
e 312 495
e 313 453
e 313 837
e 313 822
e 313 493
e 313 733
e 313 522
e 314 399
e 314 342
e 315 776
e 315 777
e 315 886
e 315 543
e 316 820
e 316 666
e 316 369
e 318 716
e 318 958
e 319 320
e 319 343
e 320 879
e 321 580
e 322 548
e 322 644
e 322 351
e 323 788
e 323 421
e 323 538
e 324 528
e 324 587
e 324 510
e 324 897
e 324 368
e 324 849
e 324 935
e 324 605
e 324 733
e 324 522
e 324 437
e 325 352
e 325 673
e 326 604
e 326 782
e 326 997
e 326 385
e 326 518
e 327 652
e 328 353
e 328 604
e 328 740
e 328 497
e 329 764
e 329 802
e 329 941
e 329 851
e 329 875
e 330 715
e 330 907
e 330 926
e 330 990
e 330 821
e 331 906
e 331 886
e 331 812
e 331 975
e 331 599
e 331 410
e 331 880
e 331 797
e 332 421
e 332 840
e 332 839
e 332 579
e 333 451
e 333 932
e 335 849
e 335 690
e 337 639
e 337 845
e 337 431
e 338 558
e 338 886
e 339 583
e 341 729
e 341 679
e 341 482
e 341 571
e 341 551
e 341 888
e 341 561
e 341 625
e 342 469
e 342 899
e 342 449
e 342 629
e 342 512
e 342 791
e 343 490
e 343 914
e 343 552
e 345 801
e 345 683
e 345 925
e 345 757
e 345 927
e 347 463
e 348 699
e 348 680
e 349 989
e 349 687
e 350 856
e 350 747
e 350 375
e 350 833
e 350 568
e 351 443
e 351 864
e 352 925
e 352 477
e 352 651
e 353 992
e 353 707
e 354 758
e 354 733
e 354 785
e 354 845
e 356 842
e 356 641
e 356 569
e 357 762
e 357 901
e 357 526
e 358 541
e 358 594
e 358 435
e 358 715
e 358 976
e 360 433
e 360 641
e 360 587
e 360 524
e 361 561
e 361 584
e 361 857
e 361 629
e 361 447
e 362 594
e 362 993
e 363 902
e 363 704
e 364 531
e 364 711
e 364 652
e 364 834
e 364 489
e 364 950
e 365 620
e 365 615
e 365 847
e 365 860
e 365 415
e 365 580
e 366 613
e 366 812
e 366 635
e 366 905
e 366 582
e 366 944
e 367 944
e 367 440
e 367 605
e 367 887
e 368 606
e 368 607
e 368 796
e 368 656
e 369 527
e 369 821
e 370 380
e 371 574
e 371 714
e 371 846
e 371 973
e 371 438
e 373 404
e 373 901
e 373 626
e 374 635
e 374 624
e 374 751
e 374 872
e 374 536
e 374 524
e 374 869
e 375 591
e 375 750
e 375 940
e 375 471
e 375 798
e 375 923
e 376 399
e 376 992
e 376 622
e 378 977
e 378 964
e 378 879
e 378 725
e 379 919
e 380 409
e 380 924
e 380 742
e 381 518
e 381 489
e 381 710
e 381 599
e 382 756
e 382 466
e 382 845
e 382 815
e 383 578
e 383 660
e 383 863
e 383 939
e 383 569
e 384 538
e 384 505
e 384 509
e 385 485
e 385 824
e 385 918
e 385 560
e 386 984
e 386 870
e 386 577
e 386 525
e 386 608
e 387 442
e 387 734
e 388 951
e 388 663
e 388 731
e 389 643
e 389 733
e 389 401
e 389 688
e 392 868
e 392 801
e 392 854
e 395 689
e 395 630
e 395 837
e 395 408
e 395 490
e 398 628
e 398 887
e 399 838
e 399 866
e 401 763
e 401 445
e 401 640
e 401 660
e 401 860
e 402 982
e 402 587
e 402 521
e 402 721
e 402 671
e 403 595
e 403 521
e 403 817
e 404 477
e 405 486
e 405 516
e 405 559
e 405 484
e 405 583
e 405 741
e 406 552
e 406 454
e 406 990
e 406 972
e 407 514
e 407 716
e 408 669
e 408 539
e 408 955
e 408 451
e 409 792
e 409 818
e 409 414
e 409 493
e 409 780
e 410 432
e 410 939
e 411 490
e 414 796
e 414 932
e 414 921
e 415 848
e 415 987
e 415 687
e 416 547
e 416 490
e 416 450
e 417 714
e 417 739
e 418 476
e 418 762
e 418 831
e 419 567
e 419 818
e 419 483
e 420 630
e 420 983
e 420 582
e 420 657
e 421 890
e 421 471
e 421 821
e 422 533
e 423 594
e 423 774
e 424 758
e 424 867
e 425 723
e 425 508
e 425 685
e 427 810
e 427 666
e 427 756
e 429 903
e 429 875
e 429 873
e 431 482
e 431 440
e 432 683
e 432 579
e 432 920
e 432 843
e 432 550
e 433 647
e 433 642
e 433 955
e 433 831
e 434 778
e 434 939
e 434 541
e 435 613
e 435 920
e 435 527
e 436 564
e 436 960
e 436 966
e 437 834
e 437 532
e 437 919
e 438 588
e 438 466
e 438 685
e 438 713
e 438 973
e 438 910
e 438 467
e 439 517
e 439 466
e 439 717
e 439 508
e 441 824
e 441 523
e 441 764
e 441 963
e 442 905
e 443 601
e 443 533
e 444 572
e 444 851
e 444 618
e 444 994
e 445 694
e 445 801
e 446 793
e 446 776
e 446 851
e 447 522
e 447 581
e 449 725
e 449 662
e 449 640
e 450 532
e 450 526
e 450 500
e 450 766
e 450 468
e 451 733
e 451 688
e 451 926
e 452 970
e 453 798
e 453 860
e 454 626
e 454 642
e 454 893
e 454 556
e 454 861
e 457 608
e 457 717
e 459 944
e 459 799
e 462 543
e 462 582
e 462 795
e 463 515
e 464 757
e 464 601
e 465 1000
e 465 952
e 466 583
e 466 728
e 466 861
e 467 678
e 467 726
e 467 584
e 468 519
e 468 861
e 468 542
e 469 502
e 471 599
e 471 669
e 472 867
e 472 605
e 472 787
e 472 880
e 475 554
e 475 944
e 475 977
e 475 665
e 476 725
e 476 533
e 476 920
e 476 646
e 476 677
e 477 750
e 482 636
e 483 736
e 483 961
e 483 810
e 484 504
e 484 918
e 484 782
e 484 564
e 484 766
e 485 637
e 485 766
e 485 966
e 486 894
e 486 844
e 488 532
e 488 1000
e 488 675
e 488 903
e 489 963
e 490 645
e 490 825
e 491 500
e 492 935
e 492 822
e 492 890
e 492 872
e 493 675
e 495 717
e 495 958
e 495 711
e 496 888
e 496 690
e 497 513
e 497 815
e 497 660
e 498 743
e 500 893
e 500 840
e 501 548
e 501 524
e 502 613
e 504 763
e 504 993
e 504 874
e 504 834
e 504 599
e 505 872
e 505 977
e 506 906
e 506 893
e 507 891
e 507 668
e 508 911
e 508 716
e 509 579
e 510 693
e 510 728
e 512 693
e 512 977
e 513 617
e 513 676
e 514 580
e 515 855
e 517 547
e 518 682
e 518 747
e 518 852
e 518 787
e 518 914
e 518 951
e 519 770
e 520 872
e 521 726
e 521 774
e 521 575
e 522 902
e 522 728
e 522 688
e 522 890
e 523 868
e 524 652
e 524 971
e 524 986
e 524 763
e 525 928
e 525 904
e 528 815
e 528 676
e 529 728
e 529 694
e 531 657
e 531 741
e 532 538
e 533 921
e 533 743
e 536 548
e 536 624
e 539 561
e 541 982
e 542 636
e 542 984
e 542 906
e 542 968
e 542 743
e 542 587
e 543 677
e 546 835
e 546 775
e 546 857
e 547 927
e 547 785
e 550 881
e 550 719
e 551 552
e 551 650
e 551 617
e 552 952
e 554 623
e 555 981
e 555 890
e 555 677
e 556 854
e 556 770
e 559 685
e 559 560
e 559 911
e 559 842
e 560 639
e 561 760
e 561 641
e 562 854
e 562 771
e 564 711
e 567 680
e 568 836
e 569 979
e 569 895
e 571 578
e 571 795
e 572 641
e 574 802
e 574 733
e 575 929
e 575 739
e 577 855
e 577 609
e 578 961
e 578 662
e 578 718
e 579 689
e 579 682
e 580 704
e 580 692
e 581 869
e 582 928
e 583 702
e 583 994
e 584 858
e 586 799
e 586 899
e 587 807
e 588 849
e 590 623
e 590 887
e 591 641
e 591 905
e 593 624
e 595 844
e 595 641
e 595 713
e 595 870
e 597 678
e 599 879
e 599 914
e 599 706
e 599 819
e 600 923
e 600 919
e 600 827
e 600 807
e 601 773
e 601 843
e 601 783
e 601 795
e 602 864
e 602 660
e 604 651
e 605 615
e 606 827
e 606 890
e 606 727
e 607 706
e 607 979
e 609 775
e 609 733
e 614 758
e 614 628
e 615 775
e 616 720
e 617 961
e 617 845
e 617 777
e 617 740
e 618 833
e 620 843
e 620 727
e 622 838
e 625 729
e 625 643
e 625 943
e 626 868
e 628 708
e 629 663
e 630 895
e 630 931
e 630 797
e 633 792
e 633 933
e 635 762
e 635 747
e 636 642
e 636 973
e 637 663
e 638 979
e 638 766
e 638 928
e 639 667
e 641 930
e 641 843
e 642 935
e 643 665
e 644 755
e 645 827
e 646 979
e 650 676
e 651 756
e 651 745
e 652 853
e 654 702
e 654 775
e 654 964
e 654 670
e 656 771
e 657 774
e 657 713
e 660 745
e 660 935
e 660 943
e 662 994
e 663 716
e 665 952
e 666 755
e 667 767
e 668 930
e 668 897
e 668 738
e 670 812
e 670 883
e 671 867
e 671 723
e 673 899
e 673 883
e 673 825
e 674 775
e 674 750
e 676 847
e 676 888
e 676 699
e 677 734
e 678 738
e 679 920
e 679 716
e 680 801
e 685 712
e 687 831
e 687 719
e 687 930
e 688 873
e 690 735
e 690 978
e 691 842
e 691 701
e 692 762
e 693 879
e 693 869
e 694 855
e 695 906
e 695 807
e 695 870
e 695 710
e 699 832
e 701 770
e 701 791
e 702 897
e 702 721
e 702 745
e 704 727
e 704 715
e 705 713
e 705 740
e 706 899
e 706 990
e 706 906
e 707 811
e 708 764
e 708 801
e 710 935
e 710 867
e 712 843
e 712 815
e 714 785
e 716 869
e 716 930
e 716 937
e 716 760
e 717 873
e 718 847
e 718 972
e 718 805
e 719 780
e 719 777
e 720 884
e 721 890
e 721 795
e 723 736
e 725 819
e 725 740
e 726 793
e 728 968
e 729 731
e 731 986
e 733 921
e 734 847
e 735 955
e 736 940
e 739 858
e 739 869
e 739 940
e 740 756
e 740 788
e 741 790
e 741 960
e 742 894
e 745 806
e 745 817
e 747 968
e 750 889
e 750 886
e 750 819
e 751 944
e 751 852
e 751 889
e 751 877
e 757 923
e 758 979
e 764 864
e 764 770
e 766 802
e 769 796
e 769 883
e 770 924
e 770 983
e 771 856
e 771 916
e 774 788
e 774 780
e 775 867
e 776 894
e 777 983
e 778 986
e 788 918
e 790 824
e 791 891
e 791 890
e 792 870
e 792 820
e 793 996
e 796 852
e 799 906
e 801 875
e 805 868
e 805 923
e 807 838
e 809 935
e 809 987
e 812 848
e 812 941
e 818 987
e 820 937
e 820 886
e 820 905
e 824 923
e 827 855
e 831 993
e 831 839
e 832 875
e 834 991
e 835 964
e 836 858
e 836 837
e 837 978
e 842 973
e 843 993
e 846 997
e 847 983
e 849 969
e 860 880
e 861 880
e 861 927
e 864 918
e 868 875
e 868 881
e 869 874
e 869 981
e 869 964
e 869 875
e 872 902
e 874 994
e 875 955
e 876 997
e 877 923
e 877 984
e 877 977
e 881 932
e 881 997
e 883 952
e 889 928
e 893 961
e 895 930
e 899 966
e 903 908
e 903 960
e 905 908
e 908 993
e 914 950
e 914 931
e 916 923
e 918 970
e 939 991
e 941 970
e 968 976
e 969 973
e 982 989
