txt_Ins/graph-1000-3.txt
n 1000
e 0 142
e 0 494
e 0 182
e 0 754
e 0 856
e 0 380
e 1 655
e 1 519
e 1 587
e 2 246
e 2 209
e 2 327
e 2 651
e 5 819
e 5 717
e 5 799
e 5 956
e 6 507
e 6 646
e 6 190
e 6 688
e 7 391
e 7 615
e 7 84
e 7 516
e 7 915
e 7 24
e 7 805
e 7 742
e 7 806
e 8 471
e 8 184
e 8 48
e 10 735
e 10 385
e 10 779
e 10 309
e 10 728
e 10 818
e 10 892
e 11 433
e 11 397
e 11 23
e 11 956
e 11 63
e 11 168
e 11 458
e 13 927
e 13 621
e 13 263
e 13 56
e 14 161
e 14 977
e 14 157
e 15 625
e 15 653
e 15 214
e 18 592
e 18 563
e 18 226
e 18 614
e 18 268
e 19 968
e 19 309
e 19 253
e 19 873
e 20 424
e 20 950
e 20 150
e 21 484
e 21 963
e 21 305
e 21 482
e 21 926
e 21 775
e 21 776
e 21 791
e 23 466
e 23 777
e 23 969
e 23 182
e 23 300
e 23 436
e 24 357
e 24 580
e 24 437
e 24 532
e 25 125
e 25 317
e 25 843
e 25 46
e 25 74
e 25 347
e 26 217
e 26 239
e 26 932
e 26 963
e 26 142
e 27 924
e 27 616
e 27 122
e 27 448
e 27 97
e 28 441
e 28 304
e 28 378
e 29 330
e 29 260
e 29 765
e 29 848
e 30 201
e 30 484
e 30 590
e 30 854
e 30 453
e 32 47
e 32 977
e 32 367
e 32 549
e 32 856
e 32 988
e 33 344
e 33 398
e 33 243
e 36 566
e 36 69
e 36 420
e 38 772
e 38 485
e 38 827
e 38 544
e 38 373
e 40 838
e 40 204
e 40 866
e 40 993
e 42 596
e 42 508
e 42 547
e 43 169
e 43 444
e 43 740
e 43 707
e 43 923
e 43 247
e 43 907
e 44 643
e 44 116
e 44 318
e 45 104
e 45 613
e 45 488
e 46 497
e 46 837
e 46 865
e 47 90
e 47 423
e 47 820
e 47 112
e 48 116
e 48 316
e 48 737
e 48 192
e 48 218
e 50 417
e 50 664
e 50 359
e 50 806
e 51 393
e 51 340
e 51 88
e 51 725
e 53 90
e 53 856
e 53 562
e 53 310
e 56 561
e 56 621
e 56 665
e 56 612
e 56 789
e 56 632
e 56 468
e 59 679
e 59 414
e 59 810
e 60 242
e 60 571
e 60 558
e 60 617
e 60 541
e 62 905
e 62 853
e 62 883
e 62 847
e 63 586
e 63 349
e 63 738
e 63 196
e 64 381
e 64 199
e 64 528
e 65 629
e 65 452
e 65 206
e 65 357
e 65 820
e 66 364
e 66 957
e 66 145
e 66 375
e 67 491
e 67 196
e 67 876
e 67 483
e 68 794
e 68 262
e 68 890
e 68 774
e 69 511
e 69 370
e 69 416
e 69 720
e 69 757
e 69 75
e 72 599
e 72 698
e 72 621
e 73 650
e 73 364
e 73 691
e 73 180
e 73 843
e 74 125
e 74 832
e 74 451
e 75 483
e 75 381
e 75 549
e 75 918
e 75 886
e 75 856
e 75 852
e 76 375
e 76 348
e 76 426
e 76 265
e 76 410
e 76 318
e 76 698
e 76 988
e 77 995
e 77 242
e 77 494
e 77 386
e 78 950
e 78 852
e 78 385
e 78 862
e 78 889
e 79 239
e 79 865
e 79 475
e 79 463
e 79 560
e 80 321
e 80 728
e 80 757
e 80 176
e 80 570
e 80 519
e 80 744
e 81 905
e 81 108
e 81 346
e 81 264
e 84 714
e 84 262
e 84 179
e 84 681
e 84 435
e 85 898
e 85 230
e 85 287
e 85 491
e 85 233
e 85 516
e 85 686
e 87 206
e 87 606
e 87 782
e 87 761
e 88 639
e 88 172
e 89 305
e 89 705
e 89 184
e 89 320
e 90 109
e 90 168
e 90 436
e 90 942
e 90 487
e 91 448
e 91 461
e 91 672
e 91 746
e 91 901
e 91 790
e 93 681
e 93 428
e 93 366
e 94 281
e 94 341
e 94 211
e 94 484
e 94 338
e 94 235
e 96 915
e 96 174
e 96 573
e 96 465
e 96 431
e 96 290
e 96 917
e 97 817
e 97 512
e 97 299
e 97 172
e 97 926
e 99 366
e 99 836
e 99 909
e 99 975
e 99 449
e 99 553
e 101 879
e 101 514
e 101 132
e 102 824
e 102 676
e 102 551
e 102 804
e 104 397
e 104 646
e 106 720
e 106 124
e 106 840
e 106 906
e 108 205
e 108 830
e 108 701
e 108 193
e 108 831
e 109 741
e 109 169
e 109 898
e 109 809
e 111 227
e 111 960
e 111 422
e 112 331
e 112 970
e 112 537
e 112 471
e 113 525
e 113 179
e 113 640
e 113 320
e 113 576
e 114 487
e 114 839
e 114 116
e 116 873
e 117 587
e 117 734
e 117 558
e 117 544
e 117 271
e 117 919
e 118 920
e 118 887
e 118 980
e 118 733
e 118 649
e 119 557
e 119 800
e 119 523
e 119 972
e 119 369
e 119 329
e 120 441
e 120 843
e 120 550
e 120 216
e 120 207
e 121 296
e 121 763
e 121 679
e 121 227
e 121 506
e 122 171
e 122 782
e 122 316
e 122 517
e 122 357
e 123 598
e 123 801
e 123 415
e 123 931
e 123 319
e 123 421
e 124 288
e 124 550
e 124 391
e 124 970
e 124 471
e 124 582
e 125 890
e 125 280
e 125 755
e 126 373
e 126 712
e 126 594
e 126 177
e 127 585
e 127 544
e 127 176
e 131 875
e 131 445
e 131 693
e 131 304
e 131 378
e 131 918
e 132 216
e 132 434
e 132 875
e 132 688
e 132 208
e 132 521
e 135 316
e 135 538
e 135 781
e 135 624
e 136 381
e 136 982
e 136 806
e 138 768
e 138 230
e 138 827
e 138 557
e 138 324
e 140 583
e 140 606
e 140 264
e 142 520
e 142 705
e 142 853
e 145 326
e 145 157
e 145 227
e 145 651
e 148 445
e 148 970
e 148 229
e 148 313
e 148 920
e 150 871
e 150 245
e 151 444
e 151 638
e 151 200
e 151 405
e 152 547
e 152 679
e 152 322
e 152 904
e 152 863
e 152 221
e 153 462
e 153 181
e 153 909
e 155 883
e 155 592
e 155 323
e 157 397
e 157 542
e 157 665
e 157 867
e 158 297
e 158 898
e 158 876
e 158 499
e 159 398
e 159 201
e 159 522
e 160 497
e 160 926
e 160 811
e 161 334
e 161 326
e 161 772
e 162 233
e 162 221
e 162 506
e 166 888
e 166 614
e 166 177
e 168 645
e 168 776
e 168 728
e 169 206
e 169 769
e 169 490
e 171 982
e 171 981
e 171 641
e 171 928
e 171 337
e 171 970
e 171 229
e 171 311
e 172 251
e 172 786
e 172 980
e 173 615
e 173 363
e 173 492
e 174 441
e 174 378
e 174 616
e 175 303
e 175 913
e 175 177
e 175 936
e 176 554
e 176 518
e 177 613
e 177 578
e 177 892
e 177 179
e 177 876
e 177 409
e 179 242
e 179 465
e 179 350
e 179 579
e 180 269
e 180 857
e 180 184
e 180 872
e 181 228
e 181 250
e 181 742
e 182 893
e 182 669
e 182 640
e 182 582
e 183 776
e 183 265
e 183 453
e 183 266
e 183 704
e 183 288
e 183 706
e 184 885
e 187 201
e 187 599
e 187 214
e 187 280
e 188 484
e 188 842
e 188 950
e 188 439
e 188 410
e 188 838
e 190 322
e 190 271
e 190 384
e 190 932
e 190 456
e 190 327
e 192 910
e 192 903
e 192 243
e 193 714
e 193 918
e 193 205
e 195 750
e 195 873
e 195 818
e 196 243
e 196 880
e 196 759
e 196 832
e 196 617
e 196 245
e 196 326
e 198 644
e 198 744
e 198 839
e 198 421
e 199 995
e 199 226
e 199 734
e 199 980
e 199 834
e 200 929
e 200 573
e 201 228
e 201 900
e 201 577
e 202 528
e 202 728
e 202 384
e 202 766
e 202 295
e 202 792
e 202 304
e 204 682
e 204 627
e 204 959
e 204 770
e 204 346
e 205 393
e 205 538
e 205 776
e 205 388
e 206 559
e 206 375
e 207 860
e 207 649
e 207 737
e 207 874
e 207 775
e 207 516
e 207 515
e 208 398
e 208 538
e 208 352
e 208 318
e 208 570
e 209 665
e 209 317
e 209 739
e 210 262
e 210 709
e 210 982
e 210 308
e 211 909
e 211 820
e 211 414
e 211 799
e 212 225
e 212 976
e 212 573
e 212 391
e 212 926
e 214 328
e 214 816
e 214 218
e 216 809
e 216 821
e 216 507
e 216 545
e 216 733
e 216 546
e 217 862
e 217 344
e 217 684
e 217 378
e 217 369
e 218 451
e 218 839
e 218 501
e 218 848
e 218 844
e 219 526
e 219 608
e 219 999
e 219 334
e 219 819
e 219 967
e 221 874
e 221 792
e 221 926
e 221 840
e 221 535
e 221 528
e 221 720
e 221 596
e 223 330
e 223 540
e 223 871
e 224 538
e 224 432
e 224 229
e 224 690
e 224 698
e 225 331
e 225 770
e 225 665
e 225 641
e 225 636
e 226 749
e 226 650
e 226 362
e 226 832
e 227 506
e 227 831
e 227 291
e 228 252
e 229 451
e 229 962
e 230 486
e 230 242
e 230 332
e 230 625
e 230 956
e 231 375
e 231 677
e 231 969
e 231 359
e 231 580
e 233 414
e 233 808
e 233 352
e 233 486
e 233 346
e 233 287
e 233 635
e 233 732
e 234 750
e 234 954
e 234 898
e 235 321
e 235 403
e 235 308
e 236 889
e 236 464
e 236 441
e 236 928
e 237 840
e 237 616
e 237 431
e 237 530
e 238 766
e 238 382
e 238 739
e 238 971
e 238 558
e 239 712
e 239 255
e 239 365
e 240 879
e 240 852
e 240 311
e 240 600
e 242 410
e 242 463
e 242 801
e 242 471
e 242 297
e 242 691
e 243 256
e 243 465
e 243 373
e 244 487
e 244 761
e 244 635
e 244 540
e 245 598
e 245 956
e 245 403
e 245 484
e 245 487
e 245 666
e 245 674
e 245 645
e 246 351
e 246 279
e 246 558
e 246 889
e 247 532
e 247 990
e 247 307
e 249 296
e 249 398
e 249 719
e 249 834
e 250 664
e 250 954
e 250 341
e 251 811
e 251 684
e 251 284
e 252 393
e 252 664
e 252 698
e 252 581
e 253 845
e 253 879
e 253 516
e 253 974
e 255 573
e 255 703
e 255 507
e 255 846
e 255 662
e 256 291
e 256 810
e 256 797
e 260 562
e 260 512
e 260 628
e 260 513
e 261 463
e 261 853
e 261 582
e 261 974
e 261 567
e 261 991
e 261 931
e 262 765
e 263 302
e 263 381
e 263 934
e 263 501
e 263 831
e 263 903
e 263 628
e 264 809
e 264 805
e 264 359
e 264 975
e 265 310
e 265 879
e 265 465
e 265 668
e 265 827
e 266 985
e 266 432
e 266 592
e 266 622
e 268 378
e 268 590
e 268 418
e 268 319
e 268 318
e 269 353
e 269 750
e 269 465
e 271 404
e 271 970
e 271 986
e 271 449
e 271 589
e 278 830
e 278 612
e 278 959
e 279 400
e 279 643
e 279 481
e 280 406
e 280 625
e 280 568
e 280 486
e 281 749
e 281 593
e 282 700
e 282 359
e 282 384
e 284 490
e 284 816
e 284 414
e 284 624
e 284 337
e 284 549
e 284 361
e 287 655
e 287 516
e 288 698
e 288 644
e 288 435
e 290 989
e 290 578
e 291 444
e 291 547
e 293 999
e 293 446
e 293 925
e 293 617
e 293 558
e 294 629
e 294 868
e 294 582
e 295 554
e 295 598
e 295 727
e 295 711
e 295 526
e 296 308
e 297 930
e 297 514
e 297 749
e 297 694
e 297 889
e 298 796
e 298 344
e 298 949
e 299 470
e 299 365
e 299 582
e 299 495
e 299 336
e 300 562
e 300 458
e 300 772
e 300 350
e 300 338
e 302 538
e 302 496
e 303 691
e 303 384
e 303 749
e 303 727
e 304 673
e 304 682
e 304 855
e 305 675
e 305 586
e 305 489
e 305 659
e 305 709
e 305 515
e 307 986
e 307 797
e 307 799
e 307 735
e 308 690
e 308 500
e 308 833
e 308 417
e 308 432
e 309 374
e 309 505
e 309 601
e 310 607
e 310 608
e 310 689
e 310 982
e 310 344
e 310 464
e 310 635
e 310 789
e 311 452
e 311 499
e 311 906
e 311 865
e 311 494
e 312 452
e 312 836
e 312 821
e 312 492
e 312 732
e 312 521
e 313 398
e 313 341
e 314 775
e 314 776
e 314 885
e 314 542
e 315 819
e 315 665
e 315 368
e 317 715
e 317 957
e 318 319
e 318 342
e 319 878
e 320 579
e 321 547
e 321 643
e 321 350
e 322 787
e 322 420
e 322 537
e 323 527
e 323 586
e 323 509
e 323 896
e 323 367
e 323 848
e 323 934
e 323 604
e 323 732
e 323 521
e 323 436
e 324 351
e 324 672
e 325 603
e 325 781
e 325 996
e 325 384
e 325 517
e 326 651
e 327 352
e 327 603
e 327 739
e 327 496
e 328 763
e 328 801
e 328 940
e 328 850
e 328 874
e 329 714
e 329 906
e 329 925
e 329 989
e 329 820
e 330 905
e 330 885
e 330 811
e 330 974
e 330 598
e 330 409
e 330 879
e 330 796
e 331 420
e 331 839
e 331 838
e 331 578
e 332 450
e 332 931
e 334 848
e 334 689
e 336 638
e 336 844
e 336 430
e 337 557
e 337 885
e 338 582
e 340 728
e 340 678
e 340 481
e 340 570
e 340 550
e 340 887
e 340 560
e 340 624
e 341 468
e 341 898
e 341 448
e 341 628
e 341 511
e 341 790
e 342 489
e 342 913
e 342 551
e 344 800
e 344 682
e 344 924
e 344 756
e 344 926
e 346 462
e 347 698
e 347 679
e 348 988
e 348 686
e 349 855
e 349 746
e 349 374
e 349 832
e 349 567
e 350 442
e 350 863
e 351 924
e 351 476
e 351 650
e 352 991
e 352 706
e 353 757
e 353 732
e 353 784
e 353 844
e 355 841
e 355 640
e 355 568
e 356 761
e 356 900
e 356 525
e 357 540
e 357 593
e 357 434
e 357 714
e 357 975
e 359 432
e 359 640
e 359 586
e 359 523
e 360 560
e 360 583
e 360 856
e 360 628
e 360 446
e 361 593
e 361 992
e 362 901
e 362 703
e 363 530
e 363 710
e 363 651
e 363 833
e 363 488
e 363 949
e 364 619
e 364 614
e 364 846
e 364 859
e 364 414
e 364 579
e 365 612
e 365 811
e 365 634
e 365 904
e 365 581
e 365 943
e 366 943
e 366 439
e 366 604
e 366 886
e 367 605
e 367 606
e 367 795
e 367 655
e 368 526
e 368 820
e 369 379
e 370 573
e 370 713
e 370 845
e 370 972
e 370 437
e 372 403
e 372 900
e 372 625
e 373 634
e 373 623
e 373 750
e 373 871
e 373 535
e 373 523
e 373 868
e 374 590
e 374 749
e 374 939
e 374 470
e 374 797
e 374 922
e 375 398
e 375 991
e 375 621
e 377 976
e 377 963
e 377 878
e 377 724
e 378 918
e 379 408
e 379 923
e 379 741
e 380 517
e 380 488
e 380 709
e 380 598
e 381 755
e 381 465
e 381 844
e 381 814
e 382 577
e 382 659
e 382 862
e 382 938
e 382 568
e 383 537
e 383 504
e 383 508
e 384 484
e 384 823
e 384 917
e 384 559
e 385 983
e 385 869
e 385 576
e 385 524
e 385 607
e 386 441
e 386 733
e 387 950
e 387 662
e 387 730
e 388 642
e 388 732
e 388 400
e 388 687
e 391 867
e 391 800
e 391 853
e 394 688
e 394 629
e 394 836
e 394 407
e 394 489
e 397 627
e 397 886
e 398 837
e 398 865
e 400 762
e 400 444
e 400 639
e 400 659
e 400 859
e 401 981
e 401 586
e 401 520
e 401 720
e 401 670
e 402 594
e 402 520
e 402 816
e 403 476
e 404 485
e 404 515
e 404 558
e 404 483
e 404 582
e 404 740
e 405 551
e 405 453
e 405 989
e 405 971
e 406 513
e 406 715
e 407 668
e 407 538
e 407 954
e 407 450
e 408 791
e 408 817
e 408 413
e 408 492
e 408 779
e 409 431
e 409 938
e 410 489
e 413 795
e 413 931
e 413 920
e 414 847
e 414 986
e 414 686
e 415 546
e 415 489
e 415 449
e 416 713
e 416 738
e 417 475
e 417 761
e 417 830
e 418 566
e 418 817
e 418 482
e 419 629
e 419 982
e 419 581
e 419 656
e 420 889
e 420 470
e 420 820
e 421 532
e 422 593
e 422 773
e 423 757
e 423 866
e 424 722
e 424 507
e 424 684
e 426 809
e 426 665
e 426 755
e 428 902
e 428 874
e 428 872
e 430 481
e 430 439
e 431 682
e 431 578
e 431 919
e 431 842
e 431 549
e 432 646
e 432 641
e 432 954
e 432 830
e 433 777
e 433 938
e 433 540
e 434 612
e 434 919
e 434 526
e 435 563
e 435 959
e 435 965
e 436 833
e 436 531
e 436 918
e 437 587
e 437 465
e 437 684
e 437 712
e 437 972
e 437 909
e 437 466
e 438 516
e 438 465
e 438 716
e 438 507
e 440 823
e 440 522
e 440 763
e 440 962
e 441 904
e 442 600
e 442 532
e 443 571
e 443 850
e 443 617
e 443 993
e 444 693
e 444 800
e 445 792
e 445 775
e 445 850
e 446 521
e 446 580
e 448 724
e 448 661
e 448 639
e 449 531
e 449 525
e 449 499
e 449 765
e 449 467
e 450 732
e 450 687
e 450 925
e 451 969
e 452 797
e 452 859
e 453 625
e 453 641
e 453 892
e 453 555
e 453 860
e 456 607
e 456 716
e 458 943
e 458 798
e 461 542
e 461 581
e 461 794
e 462 514
e 463 756
e 463 600
e 464 999
e 464 951
e 465 582
e 465 727
e 465 860
e 466 677
e 466 725
e 466 583
e 467 518
e 467 860
e 467 541
e 468 501
e 470 598
e 470 668
e 471 866
e 471 604
e 471 786
e 471 879
e 474 553
e 474 943
e 474 976
e 474 664
e 475 724
e 475 532
e 475 919
e 475 645
e 475 676
e 476 749
e 481 635
e 482 735
e 482 960
e 482 809
e 483 503
e 483 917
e 483 781
e 483 563
e 483 765
e 484 636
e 484 765
e 484 965
e 485 893
e 485 843
e 487 531
e 487 999
e 487 674
e 487 902
e 488 962
e 489 644
e 489 824
e 490 499
e 491 934
e 491 821
e 491 889
e 491 871
e 492 674
e 494 716
e 494 957
e 494 710
e 495 887
e 495 689
e 496 512
e 496 814
e 496 659
e 497 742
e 499 892
e 499 839
e 500 547
e 500 523
e 501 612
e 503 762
e 503 992
e 503 873
e 503 833
e 503 598
e 504 871
e 504 976
e 505 905
e 505 892
e 506 890
e 506 667
e 507 910
e 507 715
e 508 578
e 509 692
e 509 727
e 511 692
e 511 976
e 512 616
e 512 675
e 513 579
e 514 854
e 516 546
e 517 681
e 517 746
e 517 851
e 517 786
e 517 913
e 517 950
e 518 769
e 519 871
e 520 725
e 520 773
e 520 574
e 521 901
e 521 727
e 521 687
e 521 889
e 522 867
e 523 651
e 523 970
e 523 985
e 523 762
e 524 927
e 524 903
e 527 814
e 527 675
e 528 727
e 528 693
e 530 656
e 530 740
e 531 537
e 532 920
e 532 742
e 535 547
e 535 623
e 538 560
e 540 981
e 541 635
e 541 983
e 541 905
e 541 967
e 541 742
e 541 586
e 542 676
e 545 834
e 545 774
e 545 856
e 546 926
e 546 784
e 549 880
e 549 718
e 550 551
e 550 649
e 550 616
e 551 951
e 553 622
e 554 980
e 554 889
e 554 676
e 555 853
e 555 769
e 558 684
e 558 559
e 558 910
e 558 841
e 559 638
e 560 759
e 560 640
e 561 853
e 561 770
e 563 710
e 566 679
e 567 835
e 568 978
e 568 894
e 570 577
e 570 794
e 571 640
e 573 801
e 573 732
e 574 928
e 574 738
e 576 854
e 576 608
e 577 960
e 577 661
e 577 717
e 578 688
e 578 681
e 579 703
e 579 691
e 580 868
e 581 927
e 582 701
e 582 993
e 583 857
e 585 798
e 585 898
e 586 806
e 587 848
e 589 622
e 589 886
e 590 640
e 590 904
e 592 623
e 594 843
e 594 640
e 594 712
e 594 869
e 596 677
e 598 878
e 598 913
e 598 705
e 598 818
e 599 922
e 599 918
e 599 826
e 599 806
e 600 772
e 600 842
e 600 782
e 600 794
e 601 863
e 601 659
e 603 650
e 604 614
e 605 826
e 605 889
e 605 726
e 606 705
e 606 978
e 608 774
e 608 732
e 613 757
e 613 627
e 614 774
e 615 719
e 616 960
e 616 844
e 616 776
e 616 739
e 617 832
e 619 842
e 619 726
e 621 837
e 624 728
e 624 642
e 624 942
e 625 867
e 627 707
e 628 662
e 629 894
e 629 930
e 629 796
e 632 791
e 632 932
e 634 761
e 634 746
e 635 641
e 635 972
e 636 662
e 637 978
e 637 765
e 637 927
e 638 666
e 640 929
e 640 842
e 641 934
e 642 664
e 643 754
e 644 826
e 645 978
e 649 675
e 650 755
e 650 744
e 651 852
e 653 701
e 653 774
e 653 963
e 653 669
e 655 770
e 656 773
e 656 712
e 659 744
e 659 934
e 659 942
e 661 993
e 662 715
e 664 951
e 665 754
e 666 766
e 667 929
e 667 896
e 667 737
e 669 811
e 669 882
e 670 866
e 670 722
e 672 898
e 672 882
e 672 824
e 673 774
e 673 749
e 675 846
e 675 887
e 675 698
e 676 733
e 677 737
e 678 919
e 678 715
e 679 800
e 684 711
e 686 830
e 686 718
e 686 929
e 687 872
e 689 734
e 689 977
e 690 841
e 690 700
e 691 761
e 692 878
e 692 868
e 693 854
e 694 905
e 694 806
e 694 869
e 694 709
e 698 831
e 700 769
e 700 790
e 701 896
e 701 720
e 701 744
e 703 726
e 703 714
e 704 712
e 704 739
e 705 898
e 705 989
e 705 905
e 706 810
e 707 763
e 707 800
e 709 934
e 709 866
e 711 842
e 711 814
e 713 784
e 715 868
e 715 929
e 715 936
e 715 759
e 716 872
e 717 846
e 717 971
e 717 804
e 718 779
e 718 776
e 719 883
e 720 889
e 720 794
e 722 735
e 724 818
e 724 739
e 725 792
e 727 967
e 728 730
e 730 985
e 732 920
e 733 846
e 734 954
e 735 939
e 738 857
e 738 868
e 738 939
e 739 755
e 739 787
e 740 789
e 740 959
e 741 893
e 744 805
e 744 816
e 746 967
e 749 888
e 749 885
e 749 818
e 750 943
e 750 851
e 750 888
e 750 876
e 756 922
e 757 978
e 763 863
e 763 769
e 765 801
e 768 795
e 768 882
e 769 923
e 769 982
e 770 855
e 770 915
e 773 787
e 773 779
e 774 866
e 775 893
e 776 982
e 777 985
e 787 917
e 789 823
e 790 890
e 790 889
e 791 869
e 791 819
e 792 995
e 795 851
e 798 905
e 800 874
e 804 867
e 804 922
e 806 837
e 808 934
e 808 986
e 811 847
e 811 940
e 817 986
e 819 936
e 819 885
e 819 904
e 823 922
e 826 854
e 830 992
e 830 838
e 831 874
e 833 990
e 834 963
e 835 857
e 835 836
e 836 977
e 841 972
e 842 992
e 845 996
e 846 982
e 848 968
e 859 879
e 860 879
e 860 926
e 863 917
e 867 874
e 867 880
e 868 873
e 868 980
e 868 963
e 868 874
e 871 901
e 873 993
e 874 954
e 875 996
e 876 922
e 876 983
e 876 976
e 880 931
e 880 996
e 882 951
e 888 927
e 892 960
e 894 929
e 898 965
e 902 907
e 902 959
e 904 907
e 907 992
e 913 949
e 913 930
e 915 922
e 917 969
e 938 990
e 940 969
e 967 975
e 968 972
e 981 988
